(set-info :smt-lib-version 2.6)
(set-logic QF_LIA)
(set-info :source |
Alberto Griggio

|)
(set-info :category "random")
(set-info :status sat)
(declare-fun x0 () Int)
(declare-fun x1 () Int)
(declare-fun x2 () Int)
(declare-fun x3 () Int)
(declare-fun x4 () Int)
(declare-fun x5 () Int)
(declare-fun x6 () Int)
(declare-fun x7 () Int)
(declare-fun x8 () Int)
(declare-fun x9 () Int)
(declare-fun x10 () Int)
(declare-fun x11 () Int)
(declare-fun x12 () Int)
(declare-fun x13 () Int)
(declare-fun x14 () Int)
(declare-fun x15 () Int)
(declare-fun x16 () Int)
(declare-fun x17 () Int)
(declare-fun x18 () Int)
(declare-fun x19 () Int)
(declare-fun x20 () Int)
(declare-fun x21 () Int)
(declare-fun x22 () Int)
(declare-fun x23 () Int)
(declare-fun x24 () Int)
(assert (let ((?v_0 (* 1 x23)) (?v_3 (* 0 x13)) (?v_8 (* 0 x24)) (?v_27 (* 1 x2)) (?v_26 (* 1 x3)) (?v_60 (* 1 x8)) (?v_39 (* 1 x11)) (?v_2 (* 0 x22)) (?v_53 (* 1 x10)) (?v_67 (* 1 x22)) (?v_4 (* 0 x8)) (?v_20 (* 1 x6)) (?v_12 (* 0 x6)) (?v_41 (* 1 x9)) (?v_9 (* 0 x0)) (?v_6 (* 0 x9)) (?v_10 (* 1 x18)) (?v_70 (* 1 x14)) (?v_15 (* 1 x17)) (?v_47 (* 1 x1)) (?v_22 (* 0 x4)) (?v_14 (* 1 x15)) (?v_13 (* 0 x1)) (?v_16 (* 0 x11)) (?v_19 (* 0 x19)) (?v_57 (* 1 x19)) (?v_31 (* 0 x14)) (?v_59 (* 0 x21)) (?v_24 (* 0 x23)) (?v_25 (* 0 x3)) (?v_33 (* 1 x5)) (?v_65 (* 0 x5)) (?v_37 (* 0 x7)) (?v_64 (* 1 x13)) (?v_74 (* 1 x21)) (?v_18 (* 0 x20)) (?v_61 (* 1 x7)) (?v_35 (* 1 x24)) (?v_36 (* 0 x2)) (?v_34 (* 0 x16)) (?v_40 (* 0 x15)) (?v_46 (* 0 x18)) (?v_51 (* 1 x12)) (?v_43 (* 0 x12)) (?v_44 (* 0 x17)) (?v_55 (* 1 x0)) (?v_28 (* 0 x10)) (?v_62 (* 1 x20)) (?v_69 (* 1 x16)) (?v_72 (* 1 x4)) (?v_52 (* (- 1) x20)) (?v_1 (* (- 1) x4)) (?v_42 (* (- 1) x9)) (?v_5 (* (- 1) x24)) (?v_38 (* (- 1) x23)) (?v_7 (* (- 1) x5)) (?v_45 (* (- 1) x8)) (?v_11 (* (- 1) x2)) (?v_21 (* (- 1) x13)) (?v_30 (* (- 1) x21)) (?v_68 (* (- 1) x14)) (?v_32 (* (- 1) x19)) (?v_17 (* (- 1) x3)) (?v_49 (* (- 1) x11)) (?v_23 (* (- 1) x15)) (?v_56 (* (- 1) x1)) (?v_29 (* (- 1) x16)) (?v_48 (* (- 1) x18)) (?v_50 (* (- 1) x17)) (?v_54 (* (- 1) x0)) (?v_58 (* (- 1) x6)) (?v_63 (* (- 1) x22)) (?v_66 (* (- 1) x10)) (?v_71 (* (- 1) x7)) (?v_73 (* (- 1) x12))) (and (<= (+ ?v_0 ?v_3 ?v_8 ?v_27 ?v_26 ?v_34 ?v_24 ?v_52 ?v_0 ?v_6 ?v_1 ?v_1 ?v_2 ?v_42 ?v_60 ?v_39 ?v_2 ?v_53 ?v_5 ?v_38 ?v_44 ?v_67 ?v_4 ?v_20 ?v_16) (- 1)) (<= (+ ?v_12 ?v_41 ?v_3 ?v_4 ?v_5 ?v_28 ?v_7 ?v_45 ?v_9 ?v_6 ?v_11 ?v_7 ?v_21 ?v_13 ?v_25 ?v_8 ?v_30 ?v_68 ?v_10 ?v_70 ?v_15 ?v_9 ?v_47 ?v_32 ?v_17) 0) (<= (+ ?v_10 ?v_22 ?v_49 ?v_11 ?v_14 ?v_12 ?v_23 ?v_13 ?v_36 ?v_14 ?v_56 ?v_15 ?v_18 ?v_16 ?v_17 ?v_19 ?v_18 ?v_57 ?v_19 ?v_2 ?v_20 ?v_31 ?v_21 ?v_59 ?v_22) 0) (<= (+ ?v_8 ?v_23 ?v_24 ?v_25 ?v_26 ?v_29 ?v_5 ?v_6 ?v_33 ?v_27 ?v_65 ?v_37 ?v_6 ?v_40 ?v_64 ?v_28 ?v_74 ?v_29 ?v_4 ?v_27 ?v_23 ?v_30 ?v_31 ?v_3 ?v_32) 0) (<= (+ ?v_6 ?v_18 ?v_30 ?v_23 ?v_20 ?v_5 ?v_61 ?v_33 ?v_35 ?v_34 ?v_35 ?v_35 ?v_36 ?v_23 ?v_21 ?v_37 ?v_38 ?v_8 ?v_9 ?v_34 ?v_6 ?v_35 ?v_12 ?v_34 ?v_1) 0) (<= (+ ?v_39 ?v_40 ?v_46 ?v_3 ?v_31 ?v_41 ?v_48 ?v_40 ?v_51 ?v_18 ?v_42 ?v_50 ?v_30 ?v_2 ?v_43 ?v_3 ?v_22 ?v_43 ?v_36 ?v_44 ?v_16 ?v_45 ?v_39 ?v_46 ?v_47) 1) (<= (+ ?v_41 ?v_48 ?v_49 ?v_31 ?v_29 ?v_25 ?v_15 ?v_22 ?v_54 ?v_0 ?v_58 ?v_63 ?v_39 ?v_28 ?v_34 ?v_3 ?v_18 ?v_28 ?v_7 ?v_50 ?v_51 ?v_52 ?v_17 ?v_15 ?v_1) 1) (<= (+ ?v_44 ?v_31 ?v_43 ?v_66 ?v_55 ?v_14 ?v_9 ?v_44 ?v_37 ?v_53 ?v_37 ?v_40 ?v_44 ?v_6 ?v_30 ?v_7 ?v_39 ?v_11 ?v_43 ?v_37 ?v_26 ?v_32 ?v_40 ?v_54 ?v_40) 1) (<= (+ ?v_55 ?v_48 ?v_47 ?v_56 ?v_24 ?v_37 ?v_0 ?v_1 ?v_44 ?v_6 ?v_2 ?v_4 ?v_28 ?v_28 ?v_19 ?v_57 ?v_47 ?v_37 ?v_24 ?v_38 ?v_53 ?v_55 ?v_48 ?v_58 ?v_18) 0) (<= (+ ?v_37 ?v_59 ?v_9 ?v_23 ?v_15 ?v_17 ?v_18 ?v_62 ?v_58 ?v_36 ?v_10 ?v_9 ?v_4 ?v_71 ?v_4 ?v_42 ?v_19 ?v_9 ?v_31 ?v_4 ?v_25 ?v_56 ?v_49 ?v_12 ?v_49) (- 1)) (<= (+ ?v_60 ?v_59 ?v_6 ?v_31 ?v_27 ?v_61 ?v_13 ?v_16 ?v_25 ?v_62 ?v_3 ?v_45 ?v_2 ?v_31 ?v_49 ?v_12 ?v_37 ?v_19 ?v_27 ?v_46 ?v_27 ?v_9 ?v_3 ?v_33 ?v_39) 0) (<= (+ ?v_28 ?v_69 ?v_16 ?v_4 ?v_19 ?v_17 ?v_4 ?v_62 ?v_11 ?v_58 ?v_52 ?v_50 ?v_40 ?v_40 ?v_34 ?v_1 ?v_44 ?v_55 ?v_52 ?v_16 ?v_4 ?v_34 ?v_4 ?v_39 ?v_63) 1) (<= (+ ?v_13 ?v_53 ?v_56 ?v_64 ?v_6 ?v_5 ?v_5 ?v_35 ?v_42 ?v_59 ?v_10 ?v_65 ?v_12 ?v_59 ?v_66 ?v_29 ?v_37 ?v_36 ?v_50 ?v_10 ?v_60 ?v_4 ?v_10 ?v_16 ?v_52) (- 1)) (<= (+ ?v_16 ?v_18 ?v_67 ?v_49 ?v_53 ?v_29 ?v_52 ?v_8 ?v_68 ?v_25 ?v_40 ?v_47 ?v_73 ?v_53 ?v_44 ?v_5 ?v_34 ?v_2 ?v_19 ?v_29 ?v_20 ?v_2 ?v_52 ?v_29 ?v_22) (- 1)) (<= (+ ?v_69 ?v_30 ?v_19 ?v_36 ?v_58 ?v_57 ?v_28 ?v_72 ?v_68 ?v_38 ?v_25 ?v_2 ?v_4 ?v_5 ?v_54 ?v_26 ?v_60 ?v_61 ?v_28 ?v_16 ?v_43 ?v_11 ?v_58 ?v_52 ?v_66) 0) (<= (+ ?v_67 ?v_70 ?v_58 ?v_38 ?v_21 ?v_15 ?v_37 ?v_65 ?v_3 ?v_70 ?v_22 ?v_10 ?v_53 ?v_38 ?v_1 ?v_12 ?v_65 ?v_37 ?v_44 ?v_61 ?v_71 ?v_5 ?v_30 ?v_26 ?v_16) 0) (<= (+ ?v_55 ?v_23 ?v_56 ?v_38 ?v_29 ?v_72 ?v_71 ?v_13 ?v_51 ?v_33 ?v_2 ?v_67 ?v_43 ?v_60 ?v_62 ?v_28 ?v_40 ?v_13 ?v_70 ?v_37 ?v_34 ?v_19 ?v_9 ?v_58 ?v_40) 1) (<= (+ ?v_24 ?v_19 ?v_36 ?v_51 ?v_28 ?v_18 ?v_28 ?v_1 ?v_37 ?v_66 ?v_69 ?v_60 ?v_31 ?v_2 ?v_43 ?v_60 ?v_28 ?v_72 ?v_36 ?v_63 ?v_25 ?v_43 ?v_9 ?v_45 ?v_29) 0) (<= (+ ?v_25 ?v_22 ?v_36 ?v_43 ?v_18 ?v_22 ?v_20 ?v_33 ?v_39 ?v_29 ?v_23 ?v_23 ?v_54 ?v_11 ?v_60 ?v_16 ?v_57 ?v_8 ?v_5 ?v_53 ?v_3 ?v_2 ?v_34 ?v_59 ?v_3) 1) (<= (+ ?v_14 ?v_70 ?v_22 ?v_33 ?v_58 ?v_49 ?v_26 ?v_6 ?v_19 ?v_13 ?v_53 ?v_58 ?v_48 ?v_6 ?v_24 ?v_8 ?v_1 ?v_31 ?v_58 ?v_44 ?v_71 ?v_0 ?v_73 ?v_33 ?v_4) 1) (<= (+ ?v_70 ?v_37 ?v_3 ?v_63 ?v_4 ?v_21 ?v_13 ?v_56 ?v_63 ?v_23 ?v_2 ?v_18 ?v_8 ?v_9 ?v_54 ?v_6 ?v_69 ?v_61 ?v_9 ?v_51 ?v_57 ?v_27 ?v_55 ?v_18 ?v_37) 0) (<= (+ ?v_8 ?v_46 ?v_65 ?v_44 ?v_48 ?v_8 ?v_57 ?v_68 ?v_49 ?v_10 ?v_36 ?v_3 ?v_33 ?v_27 ?v_19 ?v_37 ?v_49 ?v_58 ?v_46 ?v_67 ?v_12 ?v_37 ?v_39 ?v_52 ?v_19) 1) (<= (+ ?v_36 ?v_44 ?v_46 ?v_29 ?v_47 ?v_35 ?v_72 ?v_59 ?v_19 ?v_52 ?v_57 ?v_34 ?v_5 ?v_7 ?v_22 ?v_11 ?v_4 ?v_28 ?v_60 ?v_35 ?v_64 ?v_44 ?v_40 ?v_36 ?v_33) 1) (<= (+ ?v_35 ?v_16 ?v_28 ?v_68 ?v_9 ?v_9 ?v_47 ?v_55 ?v_15 ?v_54 ?v_1 ?v_12 ?v_4 ?v_11 ?v_43 ?v_12 ?v_11 ?v_2 ?v_11 ?v_69 ?v_2 ?v_25 ?v_46 ?v_20 ?v_70) 1) (<= (+ ?v_60 ?v_36 ?v_59 ?v_48 ?v_2 ?v_33 ?v_7 ?v_45 ?v_36 ?v_69 ?v_13 ?v_4 ?v_39 ?v_58 ?v_10 ?v_56 ?v_14 ?v_44 ?v_6 ?v_41 ?v_69 ?v_14 ?v_9 ?v_0 ?v_65) 1) (<= (+ ?v_64 ?v_43 ?v_63 ?v_28 ?v_37 ?v_25 ?v_74 ?v_16 ?v_44 ?v_53 ?v_9 ?v_40 ?v_40 ?v_36 ?v_32 ?v_19 ?v_4 ?v_13 ?v_72 ?v_16 ?v_9 ?v_3 ?v_46 ?v_13 ?v_30) (- 1)) (<= (+ ?v_40 ?v_12 ?v_18 ?v_66 ?v_18 ?v_34 ?v_4 ?v_5 ?v_30 ?v_71 ?v_70 ?v_14 ?v_67 ?v_36 ?v_48 ?v_62 ?v_8 ?v_2 ?v_3 ?v_8 ?v_46 ?v_28 ?v_27 ?v_24 ?v_43) 0) (<= (+ ?v_31 ?v_4 ?v_41 ?v_39 ?v_41 ?v_67 ?v_7 ?v_61 ?v_21 ?v_18 ?v_18 ?v_62 ?v_24 ?v_38 ?v_58 ?v_28 ?v_54 ?v_56 ?v_14 ?v_3 ?v_68 ?v_59 ?v_72 ?v_20 ?v_36) (- 1)) (<= (+ ?v_43 ?v_63 ?v_61 ?v_4 ?v_63 ?v_21 ?v_44 ?v_40 ?v_24 ?v_0 ?v_50 ?v_28 ?v_66 ?v_60 ?v_25 ?v_3 ?v_16 ?v_52 ?v_29 ?v_33 ?v_38 ?v_2 ?v_1 ?v_60 ?v_13) 0) (<= (+ ?v_14 ?v_44 ?v_58 ?v_64 ?v_32 ?v_51 ?v_19 ?v_62 ?v_36 ?v_49 ?v_14 ?v_22 ?v_52 ?v_39 ?v_1 ?v_29 ?v_60 ?v_40 ?v_25 ?v_2 ?v_66 ?v_41 ?v_53 ?v_4 ?v_41) (- 1)) (<= (+ ?v_70 ?v_8 ?v_9 ?v_34 ?v_52 ?v_25 ?v_37 ?v_40 ?v_44 ?v_6 ?v_38 ?v_39 ?v_29 ?v_23 ?v_24 ?v_25 ?v_39 ?v_50 ?v_49 ?v_32 ?v_6 ?v_14 ?v_1 ?v_72 ?v_70) 1) (<= (+ ?v_65 ?v_6 ?v_21 ?v_47 ?v_73 ?v_51 ?v_9 ?v_22 ?v_29 ?v_4 ?v_4 ?v_8 ?v_9 ?v_12 ?v_9 ?v_7 ?v_16 ?v_41 ?v_70 ?v_13 ?v_2 ?v_14 ?v_0 ?v_33 ?v_51) 0) (<= (+ ?v_57 ?v_40 ?v_2 ?v_53 ?v_18 ?v_49 ?v_57 ?v_65 ?v_63 ?v_39 ?v_60 ?v_68 ?v_53 ?v_15 ?v_68 ?v_51 ?v_68 ?v_10 ?v_39 ?v_29 ?v_46 ?v_55 ?v_13 ?v_4 ?v_27) 0) (<= (+ ?v_13 ?v_24 ?v_30 ?v_43 ?v_56 ?v_7 ?v_3 ?v_25 ?v_45 ?v_25 ?v_24 ?v_43 ?v_22 ?v_18 ?v_62 ?v_46 ?v_5 ?v_1 ?v_0 ?v_8 ?v_52 ?v_5 ?v_12 ?v_60 ?v_18) (- 1)) (<= (+ ?v_36 ?v_26 ?v_69 ?v_54 ?v_17 ?v_7 ?v_20 ?v_27 ?v_66 ?v_17 ?v_21 ?v_1 ?v_33 ?v_8 ?v_44 ?v_41 ?v_16 ?v_56 ?v_25 ?v_16 ?v_62 ?v_58 ?v_8 ?v_74 ?v_9) 0) (<= (+ ?v_31 ?v_6 ?v_52 ?v_59 ?v_57 ?v_2 ?v_20 ?v_14 ?v_38 ?v_41 ?v_33 ?v_19 ?v_4 ?v_25 ?v_3 ?v_5 ?v_23 ?v_52 ?v_16 ?v_39 ?v_17 ?v_8 ?v_13 ?v_51 ?v_2) 1) (<= (+ ?v_53 ?v_74 ?v_22 ?v_73 ?v_22 ?v_19 ?v_46 ?v_0 ?v_17 ?v_7 ?v_26 ?v_65 ?v_13 ?v_29 ?v_65 ?v_25 ?v_65 ?v_44 ?v_74 ?v_71 ?v_67 ?v_73 ?v_19 ?v_28 ?v_19) (- 1)) (<= (+ ?v_64 ?v_59 ?v_18 ?v_6 ?v_14 ?v_8 ?v_42 ?v_8 ?v_4 ?v_29 ?v_50 ?v_4 ?v_21 ?v_45 ?v_11 ?v_67 ?v_47 ?v_44 ?v_64 ?v_62 ?v_29 ?v_61 ?v_43 ?v_27 ?v_28) (- 1)) (<= (+ ?v_16 ?v_21 ?v_25 ?v_24 ?v_6 ?v_19 ?v_27 ?v_61 ?v_46 ?v_0 ?v_9 ?v_66 ?v_35 ?v_22 ?v_48 ?v_43 ?v_23 ?v_52 ?v_6 ?v_16 ?v_24 ?v_74 ?v_13 ?v_24 ?v_39) 0) (<= (+ ?v_51 ?v_9 ?v_46 ?v_58 ?v_46 ?v_30 ?v_47 ?v_64 ?v_6 ?v_18 ?v_74 ?v_39 ?v_55 ?v_4 ?v_4 ?v_1 ?v_12 ?v_40 ?v_66 ?v_28 ?v_20 ?v_3 ?v_27 ?v_16 ?v_54) 0) (<= (+ ?v_14 ?v_44 ?v_24 ?v_18 ?v_40 ?v_24 ?v_34 ?v_46 ?v_28 ?v_66 ?v_43 ?v_24 ?v_22 ?v_29 ?v_22 ?v_46 ?v_57 ?v_65 ?v_3 ?v_54 ?v_38 ?v_43 ?v_61 ?v_0 ?v_52) 0) (<= (+ ?v_19 ?v_43 ?v_13 ?v_20 ?v_36 ?v_26 ?v_25 ?v_67 ?v_16 ?v_53 ?v_44 ?v_5 ?v_54 ?v_58 ?v_72 ?v_20 ?v_21 ?v_22 ?v_54 ?v_36 ?v_39 ?v_50 ?v_61 ?v_34 ?v_0) (- 1)) (<= (+ ?v_31 ?v_62 ?v_62 ?v_42 ?v_52 ?v_8 ?v_65 ?v_18 ?v_30 ?v_31 ?v_22 ?v_44 ?v_65 ?v_25 ?v_38 ?v_61 ?v_4 ?v_5 ?v_16 ?v_9 ?v_54 ?v_24 ?v_38 ?v_1 ?v_44) 0) (<= (+ ?v_13 ?v_38 ?v_66 ?v_42 ?v_8 ?v_32 ?v_29 ?v_53 ?v_53 ?v_19 ?v_65 ?v_72 ?v_39 ?v_24 ?v_72 ?v_43 ?v_21 ?v_3 ?v_10 ?v_63 ?v_40 ?v_22 ?v_73 ?v_72 ?v_65) 0) (<= (+ ?v_39 ?v_69 ?v_6 ?v_43 ?v_35 ?v_36 ?v_19 ?v_28 ?v_6 ?v_57 ?v_37 ?v_31 ?v_22 ?v_39 ?v_65 ?v_15 ?v_33 ?v_1 ?v_68 ?v_44 ?v_13 ?v_12 ?v_18 ?v_21 ?v_4) 1))))
(check-sat)
(exit)
